c FILE: yuzGCPrnd157.10.col
c
c SOURCE: Yu.Zorin (yzorin@gmail.com)
c
c DESCRIPTION: Random graph 
c              generated for Artificial Intelligence lectures course
c
p edge 157 2166
e 1 8
e 1 16
e 1 19
e 1 25
e 1 34
e 1 40
e 1 43
e 1 46
e 1 48
e 1 52
e 1 55
e 1 61
e 1 64
e 1 66
e 1 67
e 1 85
e 1 89
e 1 96
e 1 101
e 1 105
e 1 109
e 1 115
e 1 116
e 1 118
e 1 126
e 1 131
e 1 137
e 1 141
e 1 144
e 1 152
e 2 3
e 2 13
e 2 15
e 2 18
e 2 23
e 2 31
e 2 36
e 2 39
e 2 42
e 2 44
e 2 48
e 2 54
e 2 55
e 2 59
e 2 65
e 2 67
e 2 74
e 2 80
e 2 81
e 2 95
e 2 98
e 2 105
e 2 106
e 2 111
e 2 112
e 2 113
e 2 116
e 2 121
e 2 125
e 2 126
e 2 127
e 2 135
e 2 152
e 3 9
e 3 10
e 3 11
e 3 20
e 3 24
e 3 32
e 3 38
e 3 47
e 3 48
e 3 50
e 3 56
e 3 58
e 3 64
e 3 90
e 3 98
e 3 102
e 3 105
e 3 109
e 3 117
e 3 118
e 3 119
e 3 134
e 3 138
e 3 142
e 3 144
e 3 147
e 3 150
e 4 8
e 4 14
e 4 16
e 4 21
e 4 24
e 4 32
e 4 43
e 4 52
e 4 56
e 4 58
e 4 60
e 4 62
e 4 65
e 4 72
e 4 74
e 4 78
e 4 81
e 4 88
e 4 89
e 4 95
e 4 110
e 4 112
e 4 120
e 4 132
e 4 135
e 4 136
e 4 151
e 5 11
e 5 18
e 5 28
e 5 30
e 5 35
e 5 49
e 5 52
e 5 53
e 5 54
e 5 56
e 5 62
e 5 63
e 5 69
e 5 70
e 5 82
e 5 84
e 5 85
e 5 86
e 5 87
e 5 92
e 5 108
e 5 116
e 5 119
e 5 120
e 5 121
e 5 128
e 5 129
e 5 139
e 5 143
e 5 151
e 6 10
e 6 12
e 6 13
e 6 19
e 6 27
e 6 29
e 6 31
e 6 33
e 6 40
e 6 41
e 6 50
e 6 52
e 6 54
e 6 56
e 6 60
e 6 66
e 6 72
e 6 75
e 6 83
e 6 85
e 6 89
e 6 90
e 6 91
e 6 100
e 6 104
e 6 111
e 6 134
e 6 138
e 7 8
e 7 10
e 7 20
e 7 25
e 7 26
e 7 28
e 7 31
e 7 33
e 7 35
e 7 52
e 7 59
e 7 64
e 7 70
e 7 71
e 7 78
e 7 85
e 7 88
e 7 93
e 7 95
e 7 96
e 7 97
e 7 102
e 7 106
e 7 108
e 7 110
e 7 117
e 7 126
e 7 129
e 7 133
e 7 139
e 7 140
e 7 157
e 8 13
e 8 17
e 8 22
e 8 36
e 8 41
e 8 46
e 8 48
e 8 53
e 8 57
e 8 60
e 8 67
e 8 85
e 8 86
e 8 88
e 8 95
e 8 96
e 8 99
e 8 101
e 8 104
e 8 108
e 8 119
e 8 123
e 8 126
e 8 132
e 8 138
e 8 148
e 8 155
e 9 10
e 9 16
e 9 21
e 9 28
e 9 36
e 9 43
e 9 60
e 9 61
e 9 67
e 9 75
e 9 79
e 9 81
e 9 94
e 9 96
e 9 105
e 9 106
e 9 110
e 9 113
e 9 114
e 9 116
e 9 117
e 9 123
e 9 124
e 9 129
e 9 134
e 9 138
e 9 143
e 9 150
e 10 20
e 10 28
e 10 29
e 10 33
e 10 37
e 10 39
e 10 43
e 10 46
e 10 51
e 10 52
e 10 53
e 10 54
e 10 56
e 10 57
e 10 70
e 10 80
e 10 81
e 10 88
e 10 89
e 10 111
e 10 119
e 10 122
e 10 127
e 10 136
e 10 138
e 10 139
e 10 145
e 10 147
e 11 34
e 11 38
e 11 39
e 11 41
e 11 46
e 11 52
e 11 55
e 11 61
e 11 67
e 11 68
e 11 83
e 11 84
e 11 98
e 11 106
e 11 117
e 11 120
e 11 132
e 11 138
e 11 147
e 11 150
e 12 13
e 12 15
e 12 18
e 12 20
e 12 27
e 12 32
e 12 34
e 12 35
e 12 37
e 12 39
e 12 47
e 12 52
e 12 53
e 12 60
e 12 68
e 12 69
e 12 70
e 12 84
e 12 87
e 12 103
e 12 106
e 12 113
e 12 121
e 12 123
e 12 124
e 12 125
e 12 127
e 12 129
e 12 130
e 12 135
e 12 138
e 12 140
e 12 146
e 12 147
e 13 18
e 13 19
e 13 22
e 13 24
e 13 30
e 13 38
e 13 44
e 13 46
e 13 65
e 13 70
e 13 71
e 13 72
e 13 74
e 13 84
e 13 90
e 13 92
e 13 102
e 13 105
e 13 115
e 13 124
e 13 130
e 13 137
e 13 138
e 13 140
e 13 145
e 14 21
e 14 41
e 14 48
e 14 49
e 14 58
e 14 61
e 14 66
e 14 68
e 14 75
e 14 84
e 14 96
e 14 106
e 14 122
e 14 133
e 14 142
e 14 144
e 14 148
e 14 152
e 14 154
e 15 17
e 15 21
e 15 22
e 15 25
e 15 31
e 15 33
e 15 44
e 15 49
e 15 56
e 15 76
e 15 78
e 15 79
e 15 85
e 15 87
e 15 100
e 15 101
e 15 102
e 15 106
e 15 114
e 15 134
e 15 140
e 15 146
e 15 148
e 15 153
e 15 155
e 16 17
e 16 20
e 16 24
e 16 38
e 16 40
e 16 47
e 16 51
e 16 54
e 16 56
e 16 63
e 16 65
e 16 74
e 16 75
e 16 80
e 16 93
e 16 112
e 16 115
e 16 116
e 16 119
e 16 133
e 16 136
e 16 138
e 16 154
e 17 19
e 17 21
e 17 22
e 17 23
e 17 24
e 17 30
e 17 34
e 17 38
e 17 54
e 17 61
e 17 63
e 17 65
e 17 76
e 17 79
e 17 80
e 17 88
e 17 92
e 17 96
e 17 99
e 17 100
e 17 109
e 17 118
e 17 125
e 17 129
e 17 137
e 17 139
e 17 144
e 17 155
e 18 24
e 18 28
e 18 35
e 18 38
e 18 48
e 18 56
e 18 62
e 18 64
e 18 68
e 18 91
e 18 98
e 18 105
e 18 106
e 18 110
e 18 119
e 18 121
e 18 125
e 18 134
e 18 136
e 18 139
e 18 150
e 18 152
e 19 20
e 19 33
e 19 38
e 19 40
e 19 60
e 19 83
e 19 84
e 19 88
e 19 90
e 19 91
e 19 96
e 19 101
e 19 113
e 19 116
e 19 120
e 19 122
e 19 123
e 19 130
e 19 137
e 19 143
e 20 21
e 20 24
e 20 34
e 20 40
e 20 46
e 20 53
e 20 67
e 20 72
e 20 73
e 20 76
e 20 77
e 20 80
e 20 95
e 20 101
e 20 107
e 20 108
e 20 111
e 20 113
e 20 120
e 20 122
e 20 128
e 20 131
e 20 136
e 20 137
e 20 139
e 20 148
e 21 25
e 21 46
e 21 54
e 21 57
e 21 58
e 21 59
e 21 60
e 21 68
e 21 77
e 21 90
e 21 97
e 21 100
e 21 109
e 21 111
e 21 125
e 21 140
e 21 146
e 21 151
e 21 153
e 22 24
e 22 27
e 22 38
e 22 39
e 22 40
e 22 44
e 22 62
e 22 66
e 22 73
e 22 74
e 22 77
e 22 81
e 22 84
e 22 85
e 22 92
e 22 95
e 22 96
e 22 104
e 22 113
e 22 119
e 22 124
e 23 26
e 23 33
e 23 34
e 23 36
e 23 40
e 23 46
e 23 51
e 23 53
e 23 60
e 23 63
e 23 66
e 23 72
e 23 81
e 23 82
e 23 91
e 23 97
e 23 99
e 23 102
e 23 121
e 23 128
e 23 130
e 23 141
e 23 150
e 24 25
e 24 27
e 24 28
e 24 55
e 24 60
e 24 65
e 24 67
e 24 71
e 24 77
e 24 83
e 24 96
e 24 97
e 24 99
e 24 101
e 24 104
e 24 106
e 24 111
e 24 132
e 24 134
e 24 138
e 24 139
e 24 144
e 24 145
e 24 154
e 25 42
e 25 44
e 25 48
e 25 49
e 25 50
e 25 58
e 25 65
e 25 75
e 25 77
e 25 84
e 25 85
e 25 86
e 25 90
e 25 95
e 25 96
e 25 97
e 25 101
e 25 102
e 25 109
e 25 128
e 25 131
e 25 133
e 25 136
e 25 145
e 25 155
e 26 31
e 26 34
e 26 36
e 26 38
e 26 39
e 26 43
e 26 45
e 26 46
e 26 50
e 26 61
e 26 62
e 26 64
e 26 90
e 26 93
e 26 100
e 26 103
e 26 122
e 26 125
e 26 141
e 26 143
e 26 145
e 26 146
e 26 149
e 26 150
e 26 155
e 27 28
e 27 32
e 27 39
e 27 45
e 27 48
e 27 53
e 27 54
e 27 55
e 27 63
e 27 70
e 27 71
e 27 77
e 27 87
e 27 90
e 27 92
e 27 95
e 27 97
e 27 100
e 27 121
e 27 127
e 27 141
e 27 144
e 27 147
e 27 151
e 27 152
e 27 154
e 28 33
e 28 37
e 28 42
e 28 43
e 28 49
e 28 58
e 28 63
e 28 64
e 28 69
e 28 71
e 28 74
e 28 81
e 28 86
e 28 90
e 28 92
e 28 100
e 28 101
e 28 118
e 28 122
e 28 126
e 28 130
e 28 133
e 29 31
e 29 45
e 29 49
e 29 50
e 29 51
e 29 58
e 29 59
e 29 61
e 29 62
e 29 73
e 29 85
e 29 87
e 29 91
e 29 101
e 29 102
e 29 110
e 29 122
e 29 125
e 29 128
e 29 134
e 29 135
e 29 140
e 29 142
e 30 39
e 30 43
e 30 53
e 30 59
e 30 66
e 30 67
e 30 73
e 30 87
e 30 98
e 30 99
e 30 106
e 30 107
e 30 108
e 30 112
e 30 119
e 30 144
e 30 152
e 30 153
e 30 156
e 31 32
e 31 40
e 31 61
e 31 62
e 31 76
e 31 78
e 31 79
e 31 91
e 31 94
e 31 102
e 31 105
e 31 109
e 31 113
e 31 116
e 31 117
e 31 118
e 31 120
e 31 123
e 31 131
e 31 132
e 31 134
e 31 135
e 31 149
e 31 154
e 31 156
e 32 39
e 32 42
e 32 45
e 32 58
e 32 77
e 32 79
e 32 81
e 32 85
e 32 88
e 32 94
e 32 95
e 32 99
e 32 100
e 32 112
e 32 114
e 32 132
e 32 139
e 32 150
e 33 34
e 33 56
e 33 71
e 33 73
e 33 83
e 33 90
e 33 97
e 33 99
e 33 101
e 33 102
e 33 112
e 33 117
e 33 121
e 33 125
e 33 126
e 33 130
e 33 134
e 33 142
e 33 150
e 34 35
e 34 55
e 34 58
e 34 67
e 34 75
e 34 80
e 34 89
e 34 96
e 34 99
e 34 100
e 34 102
e 34 104
e 34 108
e 34 118
e 34 126
e 34 127
e 34 131
e 34 133
e 34 139
e 34 141
e 34 142
e 34 144
e 34 145
e 34 150
e 34 151
e 35 38
e 35 45
e 35 48
e 35 51
e 35 59
e 35 60
e 35 61
e 35 63
e 35 71
e 35 84
e 35 93
e 35 95
e 35 106
e 35 112
e 35 113
e 35 117
e 35 119
e 35 122
e 35 124
e 35 127
e 35 129
e 35 131
e 35 132
e 35 135
e 35 138
e 35 139
e 35 145
e 35 148
e 35 149
e 36 43
e 36 56
e 36 58
e 36 63
e 36 64
e 36 81
e 36 84
e 36 91
e 36 98
e 36 109
e 36 113
e 36 116
e 36 124
e 36 126
e 36 128
e 36 129
e 36 132
e 36 149
e 37 45
e 37 46
e 37 47
e 37 48
e 37 49
e 37 55
e 37 56
e 37 57
e 37 60
e 37 62
e 37 71
e 37 72
e 37 74
e 37 83
e 37 86
e 37 91
e 37 97
e 37 112
e 37 118
e 37 121
e 37 130
e 37 135
e 37 138
e 37 140
e 37 155
e 38 40
e 38 43
e 38 50
e 38 55
e 38 64
e 38 76
e 38 78
e 38 85
e 38 90
e 38 93
e 38 107
e 38 108
e 38 109
e 38 121
e 38 126
e 38 132
e 38 142
e 38 145
e 38 151
e 38 152
e 38 155
e 39 41
e 39 42
e 39 50
e 39 56
e 39 57
e 39 59
e 39 66
e 39 69
e 39 70
e 39 72
e 39 80
e 39 94
e 39 95
e 39 107
e 39 113
e 39 118
e 39 140
e 39 145
e 39 146
e 39 147
e 40 45
e 40 71
e 40 73
e 40 74
e 40 76
e 40 78
e 40 83
e 40 95
e 40 97
e 40 105
e 40 109
e 40 123
e 40 127
e 40 137
e 40 139
e 40 141
e 40 143
e 40 146
e 40 149
e 40 153
e 40 155
e 41 46
e 41 51
e 41 55
e 41 62
e 41 75
e 41 82
e 41 87
e 41 91
e 41 95
e 41 97
e 41 110
e 41 112
e 41 127
e 41 130
e 41 137
e 41 140
e 41 149
e 41 153
e 42 46
e 42 49
e 42 59
e 42 61
e 42 64
e 42 66
e 42 67
e 42 72
e 42 93
e 42 97
e 42 99
e 42 111
e 42 126
e 42 133
e 42 134
e 42 141
e 42 143
e 42 144
e 43 44
e 43 47
e 43 62
e 43 70
e 43 72
e 43 77
e 43 79
e 43 88
e 43 92
e 43 95
e 43 107
e 43 110
e 43 115
e 43 116
e 43 119
e 43 125
e 43 126
e 43 130
e 43 137
e 43 138
e 43 141
e 43 142
e 44 46
e 44 51
e 44 55
e 44 59
e 44 66
e 44 75
e 44 84
e 44 88
e 44 90
e 44 98
e 44 106
e 44 109
e 44 110
e 44 113
e 44 117
e 44 122
e 44 125
e 44 127
e 44 128
e 44 135
e 44 137
e 44 140
e 44 146
e 44 147
e 44 153
e 44 156
e 45 47
e 45 48
e 45 66
e 45 69
e 45 75
e 45 92
e 45 93
e 45 98
e 45 99
e 45 101
e 45 103
e 45 106
e 45 109
e 45 114
e 45 121
e 45 136
e 45 141
e 45 146
e 45 149
e 45 150
e 45 154
e 45 156
e 46 48
e 46 49
e 46 52
e 46 54
e 46 58
e 46 66
e 46 74
e 46 77
e 46 80
e 46 101
e 46 102
e 46 111
e 46 112
e 46 129
e 46 133
e 46 135
e 46 147
e 46 148
e 46 150
e 47 51
e 47 54
e 47 57
e 47 60
e 47 77
e 47 81
e 47 82
e 47 92
e 47 93
e 47 96
e 47 97
e 47 102
e 47 104
e 47 112
e 47 116
e 47 120
e 47 128
e 47 129
e 47 133
e 47 136
e 47 155
e 47 157
e 48 52
e 48 54
e 48 66
e 48 75
e 48 79
e 48 80
e 48 84
e 48 90
e 48 93
e 48 94
e 48 99
e 48 102
e 48 127
e 48 129
e 48 144
e 49 53
e 49 61
e 49 63
e 49 69
e 49 71
e 49 73
e 49 93
e 49 105
e 49 109
e 49 120
e 49 127
e 49 136
e 49 137
e 49 141
e 49 152
e 49 154
e 50 53
e 50 58
e 50 66
e 50 67
e 50 68
e 50 71
e 50 73
e 50 77
e 50 80
e 50 88
e 50 90
e 50 92
e 50 94
e 50 99
e 50 110
e 50 111
e 50 115
e 50 120
e 50 124
e 50 126
e 50 132
e 50 133
e 50 134
e 50 139
e 50 142
e 50 146
e 50 153
e 50 154
e 51 57
e 51 61
e 51 70
e 51 80
e 51 81
e 51 85
e 51 89
e 51 97
e 51 102
e 51 104
e 51 129
e 51 133
e 51 139
e 51 143
e 51 146
e 51 148
e 51 153
e 52 54
e 52 64
e 52 73
e 52 77
e 52 89
e 52 93
e 52 97
e 52 100
e 52 102
e 52 104
e 52 111
e 52 112
e 52 118
e 52 137
e 52 138
e 52 147
e 52 150
e 52 155
e 53 74
e 53 76
e 53 77
e 53 80
e 53 87
e 53 88
e 53 104
e 53 108
e 53 113
e 53 119
e 53 124
e 53 127
e 53 129
e 53 132
e 53 134
e 53 136
e 53 140
e 53 145
e 54 55
e 54 59
e 54 62
e 54 65
e 54 69
e 54 73
e 54 92
e 54 93
e 54 104
e 54 106
e 54 114
e 54 122
e 54 126
e 54 137
e 54 143
e 54 147
e 54 148
e 54 153
e 54 157
e 55 75
e 55 81
e 55 92
e 55 98
e 55 99
e 55 103
e 55 110
e 55 114
e 55 116
e 55 120
e 55 139
e 55 140
e 55 150
e 55 151
e 56 69
e 56 79
e 56 81
e 56 85
e 56 90
e 56 98
e 56 99
e 56 101
e 56 104
e 56 109
e 56 120
e 56 124
e 56 130
e 56 134
e 56 144
e 56 148
e 56 149
e 56 150
e 56 152
e 57 61
e 57 66
e 57 71
e 57 73
e 57 74
e 57 76
e 57 78
e 57 95
e 57 96
e 57 101
e 57 106
e 57 112
e 57 118
e 57 127
e 57 128
e 57 140
e 57 141
e 57 152
e 57 153
e 57 154
e 58 65
e 58 86
e 58 88
e 58 94
e 58 100
e 58 105
e 58 113
e 58 116
e 58 127
e 58 140
e 58 143
e 58 148
e 58 149
e 58 154
e 59 62
e 59 68
e 59 79
e 59 82
e 59 83
e 59 86
e 59 89
e 59 94
e 59 105
e 59 110
e 59 111
e 59 112
e 59 113
e 59 117
e 59 118
e 59 131
e 59 143
e 59 145
e 59 150
e 59 152
e 59 157
e 60 61
e 60 68
e 60 70
e 60 75
e 60 80
e 60 86
e 60 99
e 60 108
e 60 112
e 60 122
e 60 129
e 60 130
e 60 131
e 60 132
e 60 137
e 60 140
e 60 149
e 60 150
e 61 70
e 61 73
e 61 75
e 61 76
e 61 77
e 61 85
e 61 90
e 61 94
e 61 109
e 61 120
e 61 123
e 61 129
e 61 132
e 61 138
e 61 144
e 61 147
e 61 153
e 61 156
e 62 63
e 62 70
e 62 74
e 62 75
e 62 78
e 62 79
e 62 83
e 62 88
e 62 99
e 62 102
e 62 105
e 62 114
e 62 116
e 62 133
e 62 136
e 62 140
e 62 156
e 62 157
e 63 64
e 63 73
e 63 80
e 63 82
e 63 83
e 63 90
e 63 95
e 63 105
e 63 128
e 63 131
e 63 132
e 63 136
e 63 146
e 63 149
e 63 153
e 63 156
e 64 67
e 64 73
e 64 76
e 64 81
e 64 91
e 64 99
e 64 113
e 64 114
e 64 121
e 64 128
e 64 132
e 64 133
e 64 147
e 64 154
e 65 76
e 65 87
e 65 88
e 65 92
e 65 94
e 65 99
e 65 100
e 65 101
e 65 108
e 65 125
e 65 126
e 65 129
e 65 138
e 65 139
e 65 149
e 65 155
e 66 77
e 66 89
e 66 92
e 66 98
e 66 121
e 66 123
e 66 127
e 66 137
e 66 145
e 66 156
e 67 72
e 67 78
e 67 81
e 67 83
e 67 89
e 67 96
e 67 105
e 67 107
e 67 117
e 67 118
e 67 119
e 67 120
e 67 125
e 67 133
e 67 135
e 67 140
e 67 143
e 67 144
e 67 150
e 67 152
e 67 156
e 68 69
e 68 74
e 68 79
e 68 83
e 68 86
e 68 90
e 68 96
e 68 105
e 68 107
e 68 114
e 68 123
e 68 134
e 68 145
e 68 147
e 68 151
e 68 153
e 68 156
e 69 76
e 69 96
e 69 102
e 69 110
e 69 114
e 69 124
e 69 125
e 69 137
e 69 140
e 69 145
e 69 154
e 70 71
e 70 74
e 70 80
e 70 84
e 70 85
e 70 93
e 70 96
e 70 97
e 70 98
e 70 106
e 70 111
e 70 114
e 70 125
e 70 127
e 70 129
e 70 156
e 71 73
e 71 77
e 71 78
e 71 81
e 71 86
e 71 87
e 71 88
e 71 91
e 71 92
e 71 94
e 71 97
e 71 102
e 71 121
e 71 125
e 71 132
e 71 137
e 71 141
e 71 143
e 71 149
e 71 154
e 71 155
e 72 74
e 72 77
e 72 79
e 72 83
e 72 84
e 72 89
e 72 90
e 72 98
e 72 110
e 72 111
e 72 112
e 72 123
e 72 127
e 72 143
e 72 146
e 72 149
e 72 157
e 73 81
e 73 85
e 73 99
e 73 101
e 73 103
e 73 112
e 73 119
e 73 122
e 73 132
e 73 140
e 74 77
e 74 83
e 74 90
e 74 102
e 74 123
e 74 131
e 74 137
e 74 152
e 74 155
e 75 78
e 75 79
e 75 87
e 75 94
e 75 96
e 75 101
e 75 102
e 75 105
e 75 119
e 75 133
e 75 134
e 75 138
e 75 140
e 75 145
e 75 146
e 75 151
e 75 154
e 76 86
e 76 93
e 76 94
e 76 108
e 76 109
e 76 111
e 76 121
e 76 137
e 76 139
e 76 142
e 76 150
e 76 152
e 76 155
e 76 157
e 77 82
e 77 83
e 77 85
e 77 89
e 77 90
e 77 99
e 77 103
e 77 116
e 77 119
e 77 136
e 77 137
e 77 157
e 78 80
e 78 81
e 78 82
e 78 95
e 78 96
e 78 103
e 78 107
e 78 120
e 78 123
e 78 125
e 78 132
e 78 143
e 78 153
e 79 81
e 79 83
e 79 93
e 79 96
e 79 109
e 79 122
e 79 123
e 79 124
e 79 135
e 79 137
e 79 142
e 80 82
e 80 87
e 80 93
e 80 97
e 80 103
e 80 104
e 80 106
e 80 109
e 80 128
e 80 134
e 80 138
e 80 142
e 80 143
e 80 146
e 80 150
e 81 83
e 81 92
e 81 93
e 81 97
e 81 106
e 81 110
e 81 124
e 81 125
e 81 141
e 81 145
e 82 84
e 82 89
e 82 93
e 82 101
e 82 103
e 82 120
e 82 123
e 82 129
e 82 145
e 82 150
e 82 153
e 82 154
e 82 156
e 83 84
e 83 85
e 83 92
e 83 96
e 83 98
e 83 101
e 83 107
e 83 109
e 83 118
e 83 123
e 83 124
e 83 129
e 83 131
e 83 138
e 83 139
e 83 154
e 83 156
e 84 86
e 84 87
e 84 88
e 84 94
e 84 100
e 84 103
e 84 108
e 84 118
e 84 119
e 84 125
e 84 134
e 84 141
e 84 142
e 84 143
e 84 146
e 84 152
e 84 153
e 85 101
e 85 106
e 85 107
e 85 111
e 85 112
e 85 124
e 85 128
e 85 129
e 85 134
e 85 136
e 85 143
e 85 151
e 86 90
e 86 93
e 86 95
e 86 97
e 86 103
e 86 107
e 86 115
e 86 116
e 86 123
e 86 125
e 86 128
e 86 132
e 86 141
e 86 148
e 87 90
e 87 94
e 87 103
e 87 104
e 87 111
e 87 115
e 87 119
e 87 120
e 87 122
e 87 126
e 87 132
e 87 134
e 87 143
e 87 153
e 88 108
e 88 109
e 88 110
e 88 116
e 88 120
e 88 125
e 88 127
e 88 129
e 88 138
e 88 149
e 88 154
e 89 92
e 89 96
e 89 111
e 89 113
e 89 115
e 89 127
e 89 130
e 89 131
e 89 136
e 89 137
e 89 140
e 89 149
e 89 150
e 89 155
e 90 91
e 90 108
e 90 114
e 90 118
e 90 120
e 90 125
e 90 126
e 90 134
e 90 144
e 90 147
e 90 153
e 91 95
e 91 100
e 91 106
e 91 113
e 91 116
e 91 123
e 91 136
e 91 142
e 91 144
e 91 150
e 92 99
e 92 103
e 92 115
e 92 126
e 92 133
e 92 136
e 92 138
e 92 150
e 92 151
e 92 156
e 93 96
e 93 101
e 93 111
e 93 115
e 93 122
e 93 127
e 93 130
e 93 136
e 93 140
e 93 142
e 93 153
e 93 155
e 94 99
e 94 105
e 94 114
e 94 115
e 94 119
e 94 124
e 94 126
e 94 127
e 94 141
e 94 144
e 94 155
e 95 98
e 95 99
e 95 101
e 95 106
e 95 110
e 95 114
e 95 117
e 95 121
e 95 122
e 95 132
e 95 136
e 95 148
e 95 151
e 96 100
e 96 102
e 96 117
e 96 120
e 96 122
e 96 123
e 96 135
e 96 138
e 96 139
e 96 146
e 96 153
e 96 154
e 96 155
e 96 156
e 96 157
e 97 104
e 97 112
e 97 117
e 97 118
e 97 125
e 97 131
e 97 140
e 97 141
e 97 149
e 97 157
e 98 108
e 98 117
e 98 123
e 98 134
e 98 135
e 98 150
e 98 151
e 98 153
e 98 155
e 98 156
e 99 100
e 99 101
e 99 103
e 99 106
e 99 119
e 99 130
e 99 140
e 99 145
e 100 102
e 100 107
e 100 112
e 100 117
e 100 122
e 100 126
e 100 138
e 100 144
e 100 147
e 100 153
e 100 154
e 101 103
e 101 105
e 101 106
e 101 112
e 101 115
e 101 127
e 101 131
e 101 134
e 101 143
e 101 144
e 101 148
e 101 153
e 101 156
e 101 157
e 102 106
e 102 108
e 102 112
e 102 117
e 102 120
e 102 124
e 102 129
e 102 142
e 102 143
e 102 151
e 103 105
e 103 120
e 103 122
e 103 128
e 103 130
e 103 134
e 103 136
e 103 140
e 103 143
e 103 152
e 104 114
e 104 121
e 104 127
e 104 134
e 104 154
e 104 155
e 104 156
e 105 109
e 105 114
e 105 127
e 105 128
e 105 131
e 105 136
e 105 147
e 105 149
e 105 154
e 106 110
e 106 112
e 106 113
e 106 124
e 106 138
e 106 140
e 106 141
e 107 110
e 107 113
e 107 121
e 107 134
e 107 136
e 107 138
e 107 146
e 107 147
e 107 148
e 107 149
e 107 154
e 108 126
e 108 143
e 108 145
e 108 149
e 109 114
e 109 123
e 109 129
e 109 133
e 109 137
e 109 143
e 109 151
e 110 113
e 110 118
e 110 119
e 110 121
e 110 123
e 110 128
e 110 131
e 110 133
e 110 151
e 111 117
e 111 124
e 111 130
e 111 131
e 111 138
e 111 141
e 111 143
e 111 149
e 111 152
e 111 154
e 112 116
e 112 121
e 112 134
e 112 138
e 112 147
e 112 150
e 113 123
e 113 127
e 113 148
e 113 153
e 113 157
e 114 118
e 114 122
e 114 123
e 114 124
e 114 135
e 114 142
e 114 143
e 114 144
e 114 147
e 114 152
e 115 126
e 115 127
e 115 129
e 115 131
e 115 137
e 115 140
e 115 141
e 115 144
e 115 145
e 115 146
e 115 149
e 116 122
e 116 125
e 116 126
e 116 130
e 116 138
e 116 139
e 117 132
e 117 139
e 117 143
e 117 152
e 117 156
e 118 123
e 118 138
e 118 140
e 118 144
e 118 152
e 118 155
e 118 156
e 119 121
e 119 123
e 119 131
e 119 139
e 119 144
e 119 147
e 119 153
e 120 124
e 120 135
e 120 139
e 120 140
e 121 123
e 121 127
e 121 132
e 121 136
e 121 137
e 121 138
e 121 144
e 121 146
e 121 148
e 121 151
e 121 156
e 122 124
e 122 132
e 122 135
e 122 142
e 122 148
e 122 149
e 122 151
e 122 153
e 123 126
e 123 128
e 123 130
e 123 155
e 124 141
e 124 153
e 124 154
e 125 126
e 125 137
e 125 139
e 125 152
e 125 153
e 125 155
e 125 156
e 126 137
e 126 150
e 126 152
e 127 137
e 127 140
e 128 131
e 128 135
e 128 141
e 128 142
e 128 145
e 128 153
e 128 155
e 129 131
e 129 132
e 129 148
e 130 131
e 130 132
e 130 149
e 130 153
e 131 135
e 131 139
e 131 148
e 132 135
e 132 136
e 132 140
e 132 141
e 132 144
e 132 146
e 132 153
e 133 135
e 133 136
e 133 137
e 133 144
e 133 152
e 134 155
e 135 141
e 135 142
e 135 149
e 135 152
e 136 139
e 136 145
e 137 150
e 138 140
e 138 144
e 138 156
e 139 145
e 139 149
e 139 156
e 139 157
e 140 146
e 141 145
e 141 149
e 141 151
e 142 144
e 142 148
e 142 155
e 142 156
e 145 148
e 146 153
e 147 148
e 147 150
e 147 152
e 147 154
e 147 155
e 147 156
e 149 154
e 150 151
e 150 155
e 151 155
e 152 154
e 155 156
